
Gurobi 11.0.1 (win64) logging started Tue May 14 18:55:12 2024

Set parameter LogFile to value "output/solver_log0.txt"
Gurobi Optimizer version 11.0.1 build v11.0.1rc0 (win64 - Windows 11.0 (22631.2))

CPU model: 11th Gen Intel(R) Core(TM) i7-1165G7 @ 2.80GHz, instruction set [SSE2|AVX|AVX2|AVX512]
Thread count: 4 physical cores, 8 logical processors, using up to 8 threads

Optimize a model with 1224 rows, 367 columns and 22874 nonzeros
Model fingerprint: 0x1c1af07f
Variable types: 88 continuous, 279 integer (279 binary)
Coefficient statistics:
  Matrix range     [4e-01, 1e+05]
  Objective range  [1e+00, 1e+02]
  Bounds range     [1e+00, 1e+00]
  RHS range        [1e-02, 1e+05]

User MIP start produced solution with objective 47217.2 (0.00s)
User MIP start produced solution with objective 47217.2 (0.01s)
Loaded user MIP start with objective 47217.2

Presolve removed 138 rows and 142 columns
Presolve time: 0.02s
Presolved: 1086 rows, 225 columns, 21671 nonzeros
Variable types: 81 continuous, 144 integer (142 binary)

Root relaxation: objective 5.486150e+04, 368 iterations, 0.01 seconds (0.02 work units)

    Nodes    |    Current Node    |     Objective Bounds      |     Work
 Expl Unexpl |  Obj  Depth IntInf | Incumbent    BestBd   Gap | It/Node Time

     0     0 54861.5038    0   16 47217.2025 54861.5038  16.2%     -    0s
H    0     0                    49772.192609 54861.5038  10.2%     -    0s
     0     0 54861.5038    0   15 49772.1926 54861.5038  10.2%     -    0s
*    0     0               0    54861.503832 54861.5038  0.00%     -    0s

Cutting planes:
  Gomory: 1
  StrongCG: 1

Explored 1 nodes (1475 simplex iterations) in 0.26 seconds (0.43 work units)
Thread count was 8 (of 8 available processors)

Solution count 4: 54861.5 54861.5 49772.2 47217.2 

Optimal solution found (tolerance 1.00e-04)
Best objective 5.486150383211e+04, best bound 5.486150383211e+04, gap 0.0000%
